InboundTrucks  = 12;
OutboundTrucks = 8;
InboundDoors   = 4;
OutboundDoors  = 4;
ReleaseTime    = [4,1,4,2,3,0,5,4,1,4,1,2];
UnloadTime     = [35,42,45,26,30,34,22,28,26,25,22,34];
LoadTime       = [26,21,30,25,22,27,28,21];
TransferTime   = [| 0,37,39,0,0,17,49,31 | 27,0,34,0,37,14,35,36 | 10,39,23,44,16,32,0,33 | 0,10,26,46,19,12,37,0 | 27,0,19,35,33,46,0,20 | 41,0,29,21,43,0,15,14 | 12,0,32,44,38,0,49,48 | 0,50,18,0,22,45,0,18 | 15,19,29,31,34,14,13,0 | 45,32,39,13,0,0,30,15 | 27,19,26,39,23,0,17,43 | 0,25,0,27,21,10,10,0 |];
